scip/project/solution/pg.sol

=obj= -8674.34260712 
z0 1 
z1 1 
z5 1 
z6 1 
z9 1 
z15 1 
z18 1 
z20 1 
z21 1 
z23 1 
z25 1 
z27 1 
z29 1 
z30 1 
z34 1 
z36 1 
z39 1 
z41 1 
z44 1 
z46 1 
z51 1 
z52 1 
z55 1 
z57 1 
z59 1 
z61 1 
z66 1 
z67 1 
z71 1 
z78 1 
z81 1 
z85 1 
z86 1 
z88 1 
z89 1 
z90 1 
z91 1 
z93 1 
z97 1 
l2100 1 
l2102 1 
l2103 1 
l2104 1 
l2105 1 
l2107 1 
l2108 1 
l2109 1 
l2112 1 
l2113 1 
l2114 1 
l2115 1 
l2117 1 
l2118 0.6 
l2119 1 
l2121 1 
l2122 1 
l2123 1 
l2124 1 
l3100 1 
l3102 1 
l3103 1 
l3104 1 
l3105 1 
l3106 1 
l3107 1 
l3109 1 
l3110 1 
l3111 1 
l3113 1 
l3114 0.57333333 
l3115 1 
l3116 1 
l3118 1 
l3119 1 
l3120 0.40779221 
l3121 1 
l3123 1 
l4100 1 
l4102 1 
l4103 0.28285714 
l4104 1 
l4105 1 
l4106 1 
l4107 1 
l4108 1 
l4109 1 
l4110 1 
l4111 1 
l4114 1 
l4115 1 
l4116 1 
l4117 0.10697674 
l4118 1 
l4119 1 
l4121 1 
l4123 1 
l4124 1 
l7100 1 
l7102 1 
l7103 1 
l7104 1 
l7105 1 
l7107 1 
l7108 1 
l7111 1 
l7114 1 
l7115 1 
l7118 1 
l7119 1 
l7120 0.86285714 
l7121 1 
l7122 1 
l7123 1 
l7124 1 
l8100 1 
l8102 1 
l8104 1 
l8105 1 
l8106 1 
l8107 1 
l8108 1 
l8111 1 
l8113 1 
l8114 1 
l8115 1 
l8116 1 
l8117 1 
l8120 1 
l8121 1 
l8122 1 
l8123 1 
l8124 0.84175824 
l10100 1 
l10101 1 
l10102 1 
l10103 1 
l10104 1 
l10105 1 
l10106 1 
l10107 1 
l10108 1 
l10109 1 
l10110 1 
l10111 0.1547619 
l10114 1 
l10115 1 
l10116 1 
l10118 1 
l10119 1 
l10123 1 
l10124 1 
l11100 0.66233766 
l11102 1 
l11103 1 
l11104 1 
l11105 1 
l11107 1 
l11108 1 
l11109 1 
l11110 1 
l11111 1 
l11112 1 
l11114 1 
l11115 1 
l11117 1 
l11118 0.86363636 
l11121 1 
l11123 1 
l11124 1 
l12100 1 
l12101 1 
l12102 1 
l12104 1 
l12105 1 
l12106 1 
l12107 1 
l12108 0.95128205 
l12109 1 
l12110 1 
l12111 1 
l12115 1 
l12116 1 
l12117 1 
l12118 1 
l12119 1 
l12121 1 
l12124 1 
l13100 1 
l13101 1 
l13102 1 
l13103 1 
l13104 1 
l13105 1 
l13106 1 
l13107 1 
l13108 1 
l13109 1 
l13110 1 
l13111 1 
l13114 1 
l13115 0.77283951 
l13116 1 
l13118 1 
l13119 1 
l13121 1 
l13122 1 
l13124 1 
l14100 0.88372093 
l14101 1 
l14102 1 
l14104 1 
l14105 1 
l14108 1 
l14109 1 
l14110 1 
l14111 1 
l14113 1 
l14114 1 
l14116 1 
l14118 1 
l14119 1 
l14121 1 
l14123 1 
l16100 1 
l16102 1 
l16103 1 
l16104 1 
l16105 1 
l16106 1 
l16107 1 
l16108 0.89318182 
l16109 1 
l16110 1 
l16114 1 
l16115 1 
l16116 1 
l16117 1 
l16120 1 
l16121 1 
l16123 1 
l16124 1 
l17100 1 
l17101 1 
l17102 1 
l17103 1 
l17104 1 
l17105 1 
l17106 1 
l17108 1 
l17109 1 
l17111 1 
l17113 1 
l17114 1 
l17115 0.22191781 
l17116 1 
l17118 1 
l17119 1 
l17122 1 
l17124 1 
l19100 1 
l19102 1 
l19103 1 
l19105 1 
l19106 1 
l19107 1 
l19108 1 
l19109 1 
l19110 0.98181818 
l19112 1 
l19114 1 
l19115 1 
l19116 1 
l19118 1 
l19119 0.92183908 
l19121 1 
l19123 0.67816092 
l19124 1 
l22100 1 
l22101 1 
l22103 1 
l22105 1 
l22106 1 
l22108 1 
l22109 1 
l22110 1 
l22111 1 
l22112 1 
l22114 1 
l22117 1 
l22118 1 
l22119 1 
l22120 1 
l22121 1 
l22123 0.93235294 
l22124 1 
l24100 1 
l24101 1 
l24102 1 
l24103 1 
l24104 1 
l24105 1 
l24106 1 
l24107 1 
l24108 1 
l24109 0.092307692 
l24110 1 
l24114 1 
l24115 1 
l24117 1 
l24118 1 
l24119 1 
l24121 1 
l24122 1 
l24123 1 
l24124 1 
l26100 0.8475 
l26102 1 
l26105 1 
l26106 1 
l26108 1 
l26109 1 
l26111 1 
l26113 1 
l26114 1 
l26115 1 
l26116 1 
l26117 1 
l26118 1 
l26120 1 
l26121 1 
l26122 1 
l26123 1 
l26124 1 
l28100 1 
l28101 1 
l28102 1 
l28103 1 
l28104 1 
l28105 1 
l28106 1 
l28108 1 
l28109 1 
l28111 0.012765957 
l28113 1 
l28114 1 
l28115 1 
l28116 1 
l28117 1 
l28118 1 
l28119 1 
l28121 1 
l28122 1 
l28123 1 
l31100 1 
l31101 1 
l31103 1 
l31104 1 
l31105 1 
l31107 1 
l31108 1 
l31109 1 
l31110 1 
l31111 1 
l31112 0.038888889 
l31113 1 
l31114 1 
l31115 1 
l31116 1 
l31118 1 
l31119 1 
l31120 1 
l31121 0.0425 
l31124 1 
l32100 1 
l32101 1 
l32102 1 
l32103 1 
l32104 1 
l32106 1 
l32108 1 
l32109 1 
l32110 0.86818182 
l32111 1 
l32112 1 
l32113 1 
l32114 1 
l32115 1 
l32117 1 
l32118 1 
l32120 1 
l32121 1 
l32123 1 
l33100 1 
l33102 1 
l33104 1 
l33105 1 
l33106 1 
l33107 1 
l33108 1 
l33110 1 
l33111 1 
l33113 1 
l33114 1 
l33115 1 
l33116 1 
l33118 1 
l33119 1 
l33120 0.39534884 
l33123 1 
l33124 1 
l35100 1 
l35101 1 
l35103 1 
l35104 1 
l35105 1 
l35107 1 
l35108 1 
l35109 1 
l35110 1 
l35111 1 
l35112 0.35306122 
l35113 1 
l35114 1 
l35117 1 
l35118 1 
l35119 1 
l35120 1 
l35121 1 
l35122 1 
l35123 0.24742268 
l37100 1 
l37101 1 
l37102 1 
l37103 1 
l37104 1 
l37105 1 
l37106 1 
l37107 1 
l37108 1 
l37109 1 
l37110 1 
l37111 1 
l37112 1 
l37114 1 
l37115 1 
l37116 0.21555556 
l37118 1 
l37119 1 
l37121 1 
l37122 1 
l38100 1 
l38101 1 
l38102 1 
l38103 1 
l38104 1 
l38105 1 
l38106 1 
l38108 1 
l38109 1 
l38110 1 
l38111 1 
l38112 1 
l38113 1 
l38114 1 
l38115 0.32727273 
l38117 1 
l38118 1 
l38123 1 
l38124 1 
l40100 1 
l40102 1 
l40103 1 
l40104 1 
l40105 1 
l40106 1 
l40107 1 
l40108 1 
l40109 1 
l40111 0.91842105 
l40112 1 
l40114 1 
l40115 1 
l40118 1 
l40119 1 
l40120 1 
l40122 1 
l40123 1 
l40124 1 
l42101 1 
l42102 1 
l42103 1 
l42105 1 
l42106 0.027777778 
l42107 1 
l42108 1 
l42109 1 
l42110 1 
l42111 1 
l42112 1 
l42113 1 
l42114 1 
l42117 1 
l42118 1 
l42119 1 
l42120 1 
l42122 1 
l42123 0.36808511 
l42124 1 
l43100 1 
l43101 1 
l43102 1 
l43103 1 
l43104 0.17647059 
l43105 1 
l43106 1 
l43107 0.38082192 
l43108 1 
l43109 1 
l43110 1 
l43111 1 
l43114 1 
l43115 1 
l43117 1 
l43118 1 
l43119 1 
l43121 1 
l43122 1 
l43124 1 
l45100 1 
l45101 1 
l45102 1 
l45103 1 
l45104 1 
l45105 1 
l45108 1 
l45109 1 
l45110 1 
l45111 1 
l45112 1 
l45114 1 
l45115 1 
l45116 1 
l45118 1 
l45119 1 
l45122 0.1 
l45124 1 
l47100 1 
l47101 1 
l47102 1 
l47103 1 
l47104 1 
l47105 1 
l47107 1 
l47108 1 
l47109 1 
l47111 1 
l47112 1 
l47114 1 
l47116 0.027083333 
l47117 1 
l47118 1 
l47119 1 
l47121 1 
l47122 1 
l47123 1 
l47124 1 
l48100 1 
l48101 1 
l48102 1 
l48103 0.090909091 
l48104 1 
l48105 1 
l48106 1 
l48107 1 
l48108 1 
l48109 1 
l48110 1 
l48111 1 
l48112 1 
l48114 1 
l48115 1 
l48116 1 
l48117 1 
l48118 1 
l48122 1 
l49100 1 
l49101 1 
l49102 1 
l49104 1 
l49105 1 
l49106 1 
l49108 1 
l49110 0.87037037 
l49111 1 
l49114 1 
l49116 1 
l49117 1 
l49118 1 
l49121 1 
l49122 1 
l49123 1 
l49124 1 
l50100 1 
l50101 1 
l50102 1 
l50103 1 
l50104 1 
l50105 1 
l50106 1 
l50107 0.38857143 
l50108 0.66666667 
l50109 1 
l50110 1 
l50111 1 
l50114 1 
l50115 1 
l50117 1 
l50118 1 
l50119 1 
l50120 1 
l50121 1 
l50122 1 
l53100 1 
l53101 1 
l53104 1 
l53105 1 
l53106 1 
l53107 1 
l53108 1 
l53109 1 
l53111 1 
l53112 1 
l53114 1 
l53115 1 
l53116 0.62857143 
l53117 1 
l53118 1 
l53120 1 
l53122 1 
l53123 1 
l53124 1 
l54100 0.41 
l54101 1 
l54102 1 
l54105 1 
l54106 1 
l54109 1 
l54111 1 
l54112 1 
l54113 1 
l54114 1 
l54115 1 
l54117 1 
l54118 1 
l54119 1 
l54120 1 
l54121 1 
l54122 1 
l54123 1 
l54124 1 
l56100 1 
l56101 0.68125 
l56102 0.44938272 
l56103 1 
l56105 1 
l56106 1 
l56107 1 
l56108 1 
l56110 1 
l56111 1 
l56112 1 
l56114 1 
l56115 1 
l56116 1 
l56117 1 
l56118 1 
l56119 1 
l56120 1 
l56122 1 
l58100 1 
l58102 1 
l58104 1 
l58105 1 
l58106 1 
l58107 1 
l58108 1 
l58109 1 
l58110 1 
l58111 1 
l58113 1 
l58114 1 
l58116 1 
l58117 1 
l58118 1 
l58120 1 
l58121 1 
l58122 0.70606061 
l58124 0.28367347 
l60100 1 
l60101 1 
l60102 1 
l60103 0.44347826 
l60105 1 
l60106 1 
l60107 1 
l60108 1 
l60109 1 
l60112 1 
l60114 1 
l60115 1 
l60116 1 
l60117 1 
l60118 1 
l60119 0.96 
l60121 1 
l60122 1 
l60124 1 
l62100 1 
l62101 1 
l62102 1 
l62103 1 
l62104 0.66666667 
l62105 1 
l62106 1 
l62107 1 
l62108 1 
l62109 1 
l62110 1 
l62111 1 
l62114 1 
l62115 1 
l62116 1 
l62117 1 
l62118 1 
l62121 1 
l62123 1 
l63100 1 
l63101 1 
l63102 1 
l63103 1 
l63104 1 
l63105 1 
l63106 1 
l63107 1 
l63108 1 
l63110 1 
l63111 1 
l63113 1 
l63114 1 
l63115 1 
l63116 1 
l63117 0.22947368 
l63118 1 
l63119 1 
l63121 1 
l63124 1 
l64100 1 
l64102 1 
l64103 1 
l64104 1 
l64105 1 
l64107 1 
l64108 1 
l64109 1 
l64110 1 
l64111 1 
l64112 1 
l64114 1 
l64115 1 
l64116 1 
l64117 1 
l64118 1 
l64120 1 
l64121 0.2075 
l64122 1 
l64123 1 
l65100 1 
l65101 1 
l65102 1 
l65103 1 
l65104 1 
l65105 1 
l65106 1 
l65107 1 
l65109 1 
l65110 1 
l65111 1 
l65112 1 
l65113 1 
l65116 1 
l65117 1 
l65119 0.62222222 
l65120 1 
l65122 1 
l68100 1 
l68101 1 
l68102 1 
l68103 1 
l68104 1 
l68105 1 
l68106 1 
l68107 1 
l68108 1 
l68109 1 
l68111 1 
l68115 1 
l68116 1 
l68117 0.0043478261 
l68118 1 
l68119 1 
l68120 1 
l68121 1 
l68122 1 
l68124 1 
l69100 1 
l69101 1 
l69102 1 
l69103 1 
l69104 1 
l69105 1 
l69108 1 
l69109 1 
l69110 1 
l69111 1 
l69112 1 
l69114 1 
l69116 1 
l69118 1 
l69119 0.28888889 
l69120 1 
l69121 1 
l69123 1 
l69124 1 
l70100 1 
l70101 1 
l70102 1 
l70103 1 
l70104 1 
l70105 1 
l70106 1 
l70107 1 
l70108 1 
l70109 1 
l70110 1 
l70111 1 
l70113 0.52702703 
l70114 1 
l70115 1 
l70118 1 
l70119 1 
l70121 1 
l70122 0.31111111 
l70124 1 
l72100 1 
l72101 0.061016949 
l72103 1 
l72104 1 
l72105 1 
l72107 1 
l72108 1 
l72109 1 
l72112 1 
l72113 1 
l72114 1 
l72115 1 
l72116 1 
l72117 1 
l72118 1 
l72120 1 
l72121 1 
l72122 1 
l72124 1 
l73100 1 
l73102 1 
l73103 1 
l73104 1 
l73105 1 
l73106 1 
l73107 1 
l73108 1 
l73109 1 
l73111 1 
l73113 1 
l73114 1 
l73115 1 
l73116 1 
l73118 1 
l73119 1 
l73121 1 
l73124 0.10352941 
l74100 0.075862069 
l74101 1 
l74102 1 
l74103 1 
l74104 1 
l74105 1 
l74106 1 
l74108 1 
l74109 1 
l74113 1 
l74114 1 
l74115 1 
l74116 1 
l74117 1 
l74118 1 
l74120 1 
l74121 1 
l74122 1 
l74124 1 
l75100 1 
l75101 1 
l75102 1 
l75103 1 
l75104 1 
l75106 1 
l75107 1 
l75108 1 
l75109 1 
l75110 1 
l75112 1 
l75113 1 
l75114 1 
l75116 1 
l75118 1 
l75119 1 
l75120 1 
l75122 1 
l75123 1 
l75124 0.090322581 
l76100 1 
l76101 1 
l76103 1 
l76105 1 
l76106 1 
l76107 1 
l76108 1 
l76109 1 
l76110 1 
l76111 1 
l76112 1 
l76114 1 
l76116 1 
l76117 0.4 
l76118 1 
l76119 1 
l76120 1 
l76121 1 
l76124 1 
l77100 1 
l77101 1 
l77102 1 
l77103 1 
l77104 1 
l77105 1 
l77106 0.62894737 
l77107 1 
l77108 1 
l77109 1 
l77112 1 
l77114 1 
l77115 1 
l77116 1 
l77117 1 
l77118 1 
l77119 1 
l77120 1 
l77121 1 
l77122 0.1375 
l79100 1 
l79102 1 
l79103 1 
l79104 1 
l79105 1 
l79108 1 
l79109 1 
l79110 1 
l79111 1 
l79112 1 
l79114 1 
l79115 1 
l79116 1 
l79118 1 
l79119 0.60357143 
l79120 1 
l79121 1 
l79123 1 
l79124 1 
l80100 1 
l80102 1 
l80104 1 
l80105 1 
l80106 1 
l80107 1 
l80108 1 
l80109 1 
l80110 1 
l80112 1 
l80114 1 
l80115 0.96825397 
l80117 1 
l80118 1 
l80119 1 
l80120 1 
l80121 1 
l80124 1 
l82100 1 
l82101 1 
l82102 1 
l82103 1 
l82105 0.11111111 
l82106 1 
l82107 1 
l82108 1 
l82109 1 
l82111 1 
l82113 1 
l82114 1 
l82115 0.58387097 
l82116 1 
l82117 1 
l82118 0.98765432 
l82119 1 
l82121 1 
l82122 1 
l82124 1 
l83100 1 
l83105 1 
l83106 0.28041237 
l83107 1 
l83108 1 
l83109 1 
l83111 1 
l83112 1 
l83113 1 
l83114 1 
l83115 1 
l83116 1 
l83117 1 
l83118 1 
l83119 1 
l83121 1 
l83122 1 
l83124 1 
l84100 1 
l84101 1 
l84102 1 
l84103 1 
l84104 1 
l84105 1 
l84106 1 
l84107 1 
l84108 1 
l84109 1 
l84111 1 
l84112 1 
l84114 1 
l84116 1 
l84118 1 
l84119 0.47234043 
l84122 1 
l84124 1 
l87100 1 
l87101 0.93406593 
l87102 1 
l87103 1 
l87104 1 
l87105 1 
l87106 1 
l87108 1 
l87111 1 
l87112 0.22 
l87114 1 
l87118 0.72941176 
l87119 1 
l87120 1 
l87122 1 
l87124 1 
l92100 1 
l92101 1 
l92102 1 
l92103 1 
l92104 1 
l92105 1 
l92109 1 
l92110 1 
l92111 1 
l92112 1 
l92113 1 
l92114 1 
l92115 0.28131868 
l92117 1 
l92118 1 
l92119 1 
l92120 1 
l92121 1 
l92123 1 
l94100 1 
l94101 1 
l94102 1 
l94103 1 
l94105 1 
l94106 1 
l94107 0.83333333 
l94108 1 
l94112 1 
l94113 1 
l94114 1 
l94115 1 
l94116 1 
l94118 1 
l94119 1 
l94121 1 
l94122 1 
l94124 1 
l95100 1 
l95101 1 
l95102 1 
l95104 1 
l95105 1 
l95106 1 
l95107 1 
l95108 0.51320755 
l95109 1 
l95110 1 
l95111 0.051282051 
l95112 1 
l95114 1 
l95115 1 
l95116 1 
l95117 1 
l95118 1 
l95120 0.43764706 
l95121 1 
l95123 0.11428571 
l95124 1 
l96100 1 
l96101 1 
l96102 1 
l96103 1 
l96104 1 
l96105 1 
l96108 1 
l96109 1 
l96110 1 
l96112 1 
l96113 1 
l96114 0.35505618 
l96116 1 
l96117 1 
l96118 1 
l96119 1 
l96120 1 
l96122 1 
l96123 1 
l96124 1 
l98100 1 
l98101 1 
l98102 0.96179775 
l98103 1 
l98104 1 
l98105 1 
l98106 1 
l98108 1 
l98109 0.23678161 
l98110 1 
l98111 1 
l98114 1 
l98115 1 
l98116 0.39569892 
l98117 1 
l98118 1 
l98120 1 
l98121 1 
l98122 1 
l98124 1 
l99100 1 
l99101 1 
l99102 1 
l99103 1 
l99104 1 
l99105 1 
l99107 1 
l99111 1 
l99114 1 
l99115 1 
l99116 1 
l99117 1 
l99118 1 
l99119 0.904 
l99120 1 
l99121 1 
l99122 1 
l99123 1 
f2 499.6 
f3 415.2 
f4 393.6 
f7 489.6 
f8 494.4 
f10 450 
f11 478 
f12 448.8 
f13 382.4 
f14 486 
f16 396.4 
f17 514.8 
f19 577.2 
f22 577.6 
f24 447.6 
f26 461.2 
f28 542.8 
f31 498.8 
f32 425.6 
f33 516 
f35 512.4 
f37 499.6 
f38 459.6 
f40 453.2 
f42 442.4 
f43 465.2 
f45 396.4 
f47 362.4 
f48 516 
f49 408 
f50 406.8 
f53 402.8 
f54 429.2 
f56 435.2 
f58 519.6 
f60 358 
f62 400 
f63 417.2 
f64 434.4 
f65 483.2 
f68 444.8 
f69 516.8 
f70 504.8 
f72 450.4 
f73 551.2 
f74 511.6 
f75 351.2 
f76 437.6 
f77 435.6 
f79 449.2 
f80 446 
f82 426.8 
f83 446.8 
f84 579.6 
f87 642.8 
f92 462.4 
f94 360 
f95 465.6 
f96 434.4 
f98 456 
f99 465.2 
