scip/project/logs/pg.log
SCIP version 6.0.1 [precision: 8 byte] [memory: block] [mode: optimized] [LP solver: SoPlex 4.0.1] [GitHash: a27ecc0]
Copyright (C) 2002-2019 Konrad-Zuse-Zentrum fuer Informationstechnik Berlin (ZIB)

External codes: 
  Readline 8.0         GNU library for command line editing (gnu.org/s/readline)
  SoPlex 4.0.1         Linear Programming Solver developed at Zuse Institute Berlin (soplex.zib.de) [GitHash: e89d7d5]
  CppAD 20180000.0     Algorithmic Differentiation of C++ algorithms developed by B. Bell (www.coin-or.org/CppAD)
  ZLIB 1.2.11          General purpose compression library by J. Gailly and M. Adler (zlib.net)
  GMP 6.1.2            GNU Multiple Precision Arithmetic Library developed by T. Granlund (gmplib.org)

user parameter file <scip.set> not found - using default parameters


read problem <pg.mps>
============

original problem has 2700 variables (100 bin, 0 int, 0 impl, 2600 cont) and 125 constraints

presolving:
(round 1, fast)       10 del vars, 0 del conss, 0 add conss, 0 chg bounds, 0 chg sides, 0 chg coeffs, 0 upgd conss, 2600 impls, 0 clqs
   (0.0s) probing: 51/100 (51.0%) - 0 fixings, 0 aggregations, 0 implications, 0 bound changes
   (0.0s) probing aborted: 50/50 successive totally useless probings
presolving (2 rounds: 2 fast, 1 medium, 1 exhaustive):
 10 deleted vars, 0 deleted constraints, 0 added constraints, 0 tightened bounds, 0 added holes, 0 changed sides, 0 changed coefficients
 2600 implications, 0 cliques
presolved problem has 2690 variables (100 bin, 0 int, 0 impl, 2590 cont) and 125 constraints
    125 constraints of type <linear>
Presolving Time: 0.02

 time | node  | left  |LP iter|LP it/n| mem |mdpt |frac |vars |cons |cols |rows |cuts |confs|strbr|  dualbound   | primalbound  |  gap   
k 0.0s|     1 |     0 |    32 |     - |  15M|   0 |   - |2690 | 125 |2690 | 125 |   0 |   0 |   0 |-2.009000e+04 |-1.057658e+03 |1799.48%
  0.0s|     1 |     0 |   290 |     - |  15M|   0 |  93 |2690 | 125 |2690 | 125 |   0 |   0 |   0 |-1.182466e+04 |-1.057658e+03 |1018.00%
s 0.0s|     1 |     0 |   290 |     - |  15M|   0 |  93 |2690 | 125 |2690 | 125 |   0 |   0 |   0 |-1.182466e+04 |-2.683072e+03 | 340.71%
  0.1s|     1 |     0 |   689 |     - |  18M|   0 |  98 |2690 | 125 |2690 | 204 |  79 |   0 |   0 |-1.115640e+04 |-2.683072e+03 | 315.81%
  0.1s|     1 |     0 |  1433 |     - |  18M|   0 |  92 |2690 | 125 |2690 | 367 | 242 |   0 |   0 |-1.049687e+04 |-2.683072e+03 | 291.23%
s 0.1s|     1 |     0 |  1433 |     - |  18M|   0 |  92 |2690 | 125 |2690 | 367 | 242 |   0 |   0 |-1.049687e+04 |-2.911315e+03 | 260.55%
  0.1s|     1 |     0 |  1733 |     - |  19M|   0 |  93 |2690 | 125 |2690 | 381 | 256 |   0 |   0 |-1.040371e+04 |-2.911315e+03 | 257.35%
  0.3s|     1 |     0 |  3339 |     - |  19M|   0 |  87 |2690 | 125 |2690 | 513 | 388 |   0 |   0 |-9.908555e+03 |-2.911315e+03 | 240.35%
  0.4s|     1 |     0 |  4774 |     - |  21M|   0 |  83 |2690 | 125 |2690 | 635 | 510 |   0 |   0 |-9.632278e+03 |-2.911315e+03 | 230.86%
  0.7s|     1 |     0 |  6697 |     - |  22M|   0 |  80 |2690 | 125 |2690 | 722 | 597 |   0 |   0 |-9.513793e+03 |-2.911315e+03 | 226.79%
  0.9s|     1 |     0 |  8660 |     - |  23M|   0 |  76 |2690 | 125 |2690 | 803 | 678 |   0 |   0 |-9.396130e+03 |-2.911315e+03 | 222.75%
  1.1s|     1 |     0 |  9771 |     - |  25M|   0 |  74 |2690 | 125 |2690 | 847 | 722 |   0 |   0 |-9.360439e+03 |-2.911315e+03 | 221.52%
  1.6s|     1 |     0 | 13611 |     - |  27M|   0 |  65 |2690 | 125 |2690 |1056 | 931 |   0 |   0 |-9.138154e+03 |-2.911315e+03 | 213.88%
  1.9s|     1 |     0 | 16028 |     - |  28M|   0 |  63 |2690 | 125 |2690 |1184 |1059 |   0 |   0 |-8.998695e+03 |-2.911315e+03 | 209.09%
  2.2s|     1 |     0 | 17769 |     - |  29M|   0 |  58 |2690 | 125 |2690 |1282 |1157 |   0 |   0 |-8.910167e+03 |-2.911315e+03 | 206.05%
 time | node  | left  |LP iter|LP it/n| mem |mdpt |frac |vars |cons |cols |rows |cuts |confs|strbr|  dualbound   | primalbound  |  gap   
  2.4s|     1 |     0 | 18953 |     - |  31M|   0 |  51 |2690 | 125 |2690 |1365 |1240 |   0 |   0 |-8.836523e+03 |-2.911315e+03 | 203.52%
  2.6s|     1 |     0 | 19967 |     - |  32M|   0 |  47 |2690 | 125 |2690 |1415 |1290 |   0 |   0 |-8.796841e+03 |-2.911315e+03 | 202.16%
  2.9s|     1 |     0 | 20995 |     - |  34M|   0 |  46 |2690 | 125 |2690 |1454 |1329 |   0 |   0 |-8.774397e+03 |-2.911315e+03 | 201.39%
  3.2s|     1 |     0 | 22641 |     - |  35M|   0 |  34 |2690 | 125 |2690 |1572 |1447 |   0 |   0 |-8.730627e+03 |-2.911315e+03 | 199.89%
  3.5s|     1 |     0 | 23568 |     - |  35M|   0 |  29 |2690 | 125 |2690 |1595 |1498 |   0 |   0 |-8.713136e+03 |-2.911315e+03 | 199.29%
  3.6s|     1 |     0 | 23878 |     - |  35M|   0 |  26 |2690 | 125 |2690 |1633 |1536 |   0 |   0 |-8.696358e+03 |-2.911315e+03 | 198.71%
  3.8s|     1 |     0 | 24061 |     - |  37M|   0 |  25 |2690 | 125 |2690 |1654 |1557 |   0 |   0 |-8.691448e+03 |-2.911315e+03 | 198.54%
  3.9s|     1 |     0 | 24322 |     - |  37M|   0 |  24 |2690 | 125 |2690 |1662 |1565 |   0 |   0 |-8.689561e+03 |-2.911315e+03 | 198.48%
  4.1s|     1 |     0 | 24608 |     - |  37M|   0 |  14 |2690 | 125 |2690 |1741 |1644 |   0 |   0 |-8.682760e+03 |-2.911315e+03 | 198.24%
  4.2s|     1 |     0 | 24715 |     - |  38M|   0 |  15 |2690 | 125 |2690 |1754 |1657 |   0 |   0 |-8.681202e+03 |-2.911315e+03 | 198.19%
  4.3s|     1 |     0 | 24784 |     - |  38M|   0 |   9 |2690 | 125 |2690 |1531 |1683 |   0 |   0 |-8.680691e+03 |-2.911315e+03 | 198.17%
  4.3s|     1 |     0 | 24813 |     - |  39M|   0 |   9 |2690 | 125 |2690 |1534 |1686 |   0 |   0 |-8.680658e+03 |-2.911315e+03 | 198.17%
  4.3s|     1 |     0 | 24865 |     - |  40M|   0 |   9 |2690 | 125 |2690 |1546 |1698 |   0 |   0 |-8.680555e+03 |-2.911315e+03 | 198.17%
  4.4s|     1 |     0 | 24896 |     - |  40M|   0 |   9 |2690 | 125 |2690 |1554 |1706 |   0 |   0 |-8.680499e+03 |-2.911315e+03 | 198.16%
  4.5s|     1 |     0 | 24966 |     - |  40M|   0 |   8 |2690 | 125 |2690 |1586 |1738 |   0 |   0 |-8.680339e+03 |-2.911315e+03 | 198.16%
 time | node  | left  |LP iter|LP it/n| mem |mdpt |frac |vars |cons |cols |rows |cuts |confs|strbr|  dualbound   | primalbound  |  gap   
  4.5s|     1 |     0 | 25021 |     - |  41M|   0 |   5 |2690 | 125 |2690 |1617 |1769 |   0 |   0 |-8.680244e+03 |-2.911315e+03 | 198.16%
  4.6s|     1 |     0 | 25045 |     - |  42M|   0 |   6 |2690 | 125 |2690 |1383 |1774 |   0 |   0 |-8.680208e+03 |-2.911315e+03 | 198.15%
  4.7s|     1 |     0 | 25092 |     - |  44M|   0 |   5 |2690 | 125 |2690 |1390 |1781 |   0 |   0 |-8.680183e+03 |-2.911315e+03 | 198.15%
  4.7s|     1 |     0 | 25116 |     - |  44M|   0 |   5 |2690 | 125 |2690 |1394 |1785 |   0 |   0 |-8.680163e+03 |-2.911315e+03 | 198.15%
  4.8s|     1 |     0 | 25141 |     - |  44M|   0 |   5 |2690 | 125 |2690 |1400 |1791 |   0 |   0 |-8.680146e+03 |-2.911315e+03 | 198.15%
  4.9s|     1 |     0 | 25165 |     - |  44M|   0 |   8 |2690 | 125 |2690 |1404 |1795 |   0 |   0 |-8.680129e+03 |-2.911315e+03 | 198.15%
u 5.4s|     1 |     0 | 28336 |     - |  45M|   0 |   - |2690 | 127 |2690 |1404 |   0 |   0 |   0 |-8.680129e+03 |-8.578220e+03 |   1.19%
F 5.4s|     1 |     0 | 28879 |     - |  45M|   0 |   0 |2690 | 127 |2690 |1404 |1795 |   0 |   0 |-8.680129e+03 |-8.637724e+03 |   0.49%
E 5.8s|     1 |     0 | 28879 |     - |  45M|   0 |   8 |2690 | 127 |2690 |1404 |1795 |   0 |   0 |-8.680129e+03 |-8.653940e+03 |   0.30%
  5.9s|     1 |     0 | 28879 |     - |  45M|   0 |   8 |2690 | 127 |2690 |1404 |1795 |   0 |   0 |-8.680129e+03 |-8.653940e+03 |   0.30%
  5.9s|     1 |     0 | 28879 |     - |  45M|   0 |   8 |2690 | 127 |2690 |1350 |1795 |   0 |   0 |-8.680129e+03 |-8.653940e+03 |   0.30%
  5.9s|     1 |     0 | 28896 |     - |  45M|   0 |   6 |2690 | 127 |2690 |1362 |1807 |   0 |   0 |-8.680127e+03 |-8.653940e+03 |   0.30%
  5.9s|     1 |     0 | 28896 |     - |  45M|   0 |   6 |2690 | 127 |2690 |1362 |1807 |   0 |   0 |-8.680127e+03 |-8.653940e+03 |   0.30%
  6.0s|     1 |     0 | 28912 |     - |  45M|   0 |   5 |2690 | 127 |2690 |1377 |1822 |   0 |   0 |-8.680124e+03 |-8.653940e+03 |   0.30%
  6.0s|     1 |     0 | 28912 |     - |  45M|   0 |   5 |2690 | 126 |2690 |1377 |1822 |   0 |   0 |-8.680124e+03 |-8.653940e+03 |   0.30%
 time | node  | left  |LP iter|LP it/n| mem |mdpt |frac |vars |cons |cols |rows |cuts |confs|strbr|  dualbound   | primalbound  |  gap   
  6.0s|     1 |     0 | 28936 |     - |  45M|   0 |   7 |2690 | 126 |2690 |1380 |1825 |   0 |   0 |-8.680105e+03 |-8.653940e+03 |   0.30%
  6.0s|     1 |     0 | 28936 |     - |  45M|   0 |   7 |2690 | 126 |2690 |1378 |1825 |   0 |   0 |-8.680105e+03 |-8.653940e+03 |   0.30%
  6.1s|     1 |     0 | 28953 |     - |  45M|   0 |   5 |2690 | 126 |2690 |1393 |1840 |   0 |   0 |-8.680103e+03 |-8.653940e+03 |   0.30%
  6.1s|     1 |     0 | 28953 |     - |  45M|   0 |   5 |2690 | 126 |2690 |1381 |1840 |   0 |   0 |-8.680103e+03 |-8.653940e+03 |   0.30%
  6.2s|     1 |     0 | 28953 |     - |  45M|   0 |   - |2690 | 126 |2690 |1381 |1840 |   0 |   5 |-8.679966e+03 |-8.653940e+03 |   0.30%
(run 1, node 1) restarting after 14 global fixings of integer variables

(restart) converted 1256 cuts from the global cut pool into linear constraints

presolving:
(round 1, fast)       58 del vars, 90 del conss, 0 add conss, 4 chg bounds, 7 chg sides, 4 chg coeffs, 0 upgd conss, 2600 impls, 0 clqs
(round 2, fast)       58 del vars, 90 del conss, 0 add conss, 4 chg bounds, 16 chg sides, 4 chg coeffs, 0 upgd conss, 2600 impls, 0 clqs
(round 3, exhaustive) 58 del vars, 103 del conss, 0 add conss, 4 chg bounds, 16 chg sides, 4 chg coeffs, 0 upgd conss, 2600 impls, 0 clqs
(round 4, exhaustive) 58 del vars, 103 del conss, 0 add conss, 4 chg bounds, 16 chg sides, 4 chg coeffs, 805 upgd conss, 2600 impls, 0 clqs
presolving (5 rounds: 5 fast, 3 medium, 3 exhaustive):
 58 deleted vars, 103 deleted constraints, 0 added constraints, 4 tightened bounds, 0 added holes, 16 changed sides, 4 changed coefficients
 2600 implications, 0 cliques
presolved problem has 2632 variables (82 bin, 0 int, 0 impl, 2550 cont) and 1279 constraints
    805 constraints of type <varbound>
    474 constraints of type <linear>
Presolving Time: 0.04
transformed 3/6 original solutions to the transformed problem space

 time | node  | left  |LP iter|LP it/n| mem |mdpt |frac |vars |cons |cols |rows |cuts |confs|strbr|  dualbound   | primalbound  |  gap   
  6.7s|     1 |     0 | 33881 |     - |  41M|   0 |   4 |2632 |1279 |2632 |1277 |   0 |   0 |   5 |-8.679966e+03 |-8.653940e+03 |   0.30%
  6.7s|     1 |     0 | 33881 |     - |  41M|   0 |   4 |2632 |1279 |2632 |1277 |   0 |   0 |   5 |-8.679966e+03 |-8.653940e+03 |   0.30%
  6.8s|     1 |     0 | 33889 |     - |  41M|   0 |   5 |2632 |1279 |2632 |1278 |   1 |   0 |   5 |-8.679966e+03 |-8.653940e+03 |   0.30%
  6.8s|     1 |     0 | 33900 |     - |  41M|   0 |   5 |2632 |1279 |2632 |1280 |   3 |   0 |   5 |-8.679966e+03 |-8.653940e+03 |   0.30%
  6.9s|     1 |     0 | 33917 |     - |  41M|   0 |   5 |2632 |1279 |2632 |1282 |   5 |   0 |   5 |-8.679966e+03 |-8.653940e+03 |   0.30%
  7.0s|     1 |     0 | 33935 |     - |  41M|   0 |   4 |2632 |1279 |2632 |1288 |  11 |   0 |   5 |-8.679966e+03 |-8.653940e+03 |   0.30%
  7.1s|     1 |     0 | 33943 |     - |  42M|   0 |   3 |2632 |1279 |2632 |1289 |  12 |   0 |   5 |-8.679966e+03 |-8.653940e+03 |   0.30%
  7.1s|     1 |     0 | 33970 |     - |  42M|   0 |   4 |2632 |1279 |2632 |1293 |  16 |   0 |   5 |-8.679966e+03 |-8.653940e+03 |   0.30%
  7.2s|     1 |     0 | 33989 |     - |  42M|   0 |   5 |2632 |1279 |2632 |1294 |  17 |   0 |   5 |-8.679966e+03 |-8.653940e+03 |   0.30%
  7.3s|     1 |     0 | 34006 |     - |  42M|   0 |   5 |2632 |1279 |2632 |1296 |  19 |   0 |   5 |-8.679966e+03 |-8.653940e+03 |   0.30%
  7.4s|     1 |     0 | 34013 |     - |  42M|   0 |   5 |2632 |1279 |2632 |1299 |  22 |   0 |   5 |-8.679966e+03 |-8.653940e+03 |   0.30%
  7.5s|     1 |     0 | 34021 |     - |  42M|   0 |   5 |2632 |1279 |2632 |1300 |  23 |   0 |   5 |-8.679966e+03 |-8.653940e+03 |   0.30%
  7.6s|     1 |     0 | 34038 |     - |  42M|   0 |   5 |2632 |1279 |2632 |1303 |  26 |   0 |   5 |-8.679966e+03 |-8.653940e+03 |   0.30%
E 8.1s|     1 |     0 | 35191 |     - |  43M|   0 |   5 |2632 |1279 |2632 |1303 |  26 |   0 |   5 |-8.679966e+03 |-8.661812e+03 |   0.21%
  8.1s|     1 |     0 | 35191 |     - |  43M|   0 |   5 |2632 |1279 |2632 |1303 |  26 |   0 |   5 |-8.679966e+03 |-8.661812e+03 |   0.21%
 time | node  | left  |LP iter|LP it/n| mem |mdpt |frac |vars |cons |cols |rows |cuts |confs|strbr|  dualbound   | primalbound  |  gap   
  8.2s|     1 |     0 | 35207 |     - |  43M|   0 |   3 |2632 |1279 |2632 |1306 |  29 |   0 |   5 |-8.679966e+03 |-8.661812e+03 |   0.21%
  8.2s|     1 |     0 | 35218 |     - |  43M|   0 |   3 |2632 |1279 |2632 |1308 |  31 |   0 |   5 |-8.679966e+03 |-8.661812e+03 |   0.21%
  8.3s|     1 |     2 | 35218 |     - |  43M|   0 |   3 |2632 |1279 |2632 |1308 |  31 |   0 |   8 |-8.679921e+03 |-8.661812e+03 |   0.21%
 13.3s|   100 |    99 | 48807 | 184.9 |  46M|  17 |   4 |2632 |1281 |2632 |1061 | 287 |   6 | 199 |-8.679079e+03 |-8.661812e+03 |   0.20%
 16.7s|   200 |   193 | 65660 | 176.7 |  49M|  20 |   3 |2632 |1285 |2632 |1052 | 572 |  14 | 295 |-8.679018e+03 |-8.661812e+03 |   0.20%
N17.2s|   201 |   169 | 65773 | 176.4 |  50M|  20 |   7 |2632 |1285 |2632 |1052 | 572 |  14 | 295 |-8.678962e+03 |-8.665322e+03 |   0.16%
 19.6s|   300 |   236 | 82912 | 175.3 |  50M|  23 |   1 |2632 |1284 |2632 |1054 | 681 |  14 | 377 |-8.678887e+03 |-8.665322e+03 |   0.16%
*19.7s|   311 |   170 | 83104 | 169.7 |  50M|  34 |   - |2632 |1284 |2632 |1054 | 681 |  14 | 380 |-8.678887e+03 |-8.674343e+03 |   0.05%
 20.4s|   400 |   161 | 85166 | 137.1 |  51M|  34 |   - |2632 |1285 |2632 |1070 | 770 |  19 | 429 |-8.678401e+03 |-8.674343e+03 |   0.05%
 20.7s|   500 |    61 | 86117 | 111.6 |  51M|  34 |   - |2632 |1285 |2632 |1140 | 770 |  19 | 429 |-8.676934e+03 |-8.674343e+03 |   0.03%

SCIP Status        : problem is solved [optimal solution found]
Solving Time (sec) : 20.96
Solving Nodes      : 561 (total of 562 nodes in 2 runs)
Primal Bound       : -8.67434260711703e+03 (13 solutions)
Dual Bound         : -8.67434260711703e+03
Gap                : 0.00 %


